WARNING: for repeatability, setting FPU to use double precision
============================[ Problem Statistics ]=============================
|                                                                             |
|  Number of variables:            50                                         |
|  Number of clauses:             218                                         |
|  Parse time:                   0.00 s                                       |
|                                                                             |
============================[ Search Statistics ]==============================
| Conflicts |          ORIGINAL         |          LEARNT          | Progress |
|           |    Vars  Clauses Literals |    Limit  Clauses Lit/Cl |          |
===============================================================================
===============================================================================
restarts              : 1
conflicts             : 25             (121359 /sec)
decisions             : 33             (0.00 % random) (160194 /sec)
propagations          : 352            (1708738 /sec)
conflict literals     : 101            (9.82 % deleted)
Memory used           : 20.00 MB
CPU time              : 0.000206 s

SATISFIABLE
